c 159_3_checker_5cl.cnf
c
c field = 159
c formula set type = 3_checker_5cl
c
p cnf 5 6
346 
376 
406 
-437 
-286 
347 
377 
407 
-436 
-287 
348 
380 
412 
-445 
-284 
349 
381 
413 
-444 
-285 
344 
372 
400 
-429 
-288 
345 
373 
401 
-428 
-289 
